db/data/292072430879152632117168262121672325314.z3.out
-------------------
2500.093791435
